c 3SAT random generation...
c 2021-12-02 
p cnf 3 20
-2 -3 -1 0
1 -2 -3 0
-1 3 2 0
3 2 1 0
3 -1 2 0
-3 -1 -2 0
-1 2 -3 0
1 -2 3 0
1 -2 3 0
-2 1 -3 0
-1 -3 2 0
2 3 1 0
-3 1 -2 0
-2 -3 1 0
-3 1 2 0
-2 -1 3 0
-3 1 -2 0
-2 -3 -1 0
1 3 -2 0
1 -3 2 0
